
#######################################################################
#
#                 Cambridge Crystallographic Data Centre
#                                CCDC
#
#######################################################################
#
# If this CIF has been generated from an entry in the Cambridge
# Structural Database, then it will include bibliographic, chemical,
# crystal, experimental, refinement or atomic coordinate data resulting
# from the CCDC's data processing and validation procedures.
#
#######################################################################

data_CSD_CIF_FAWCEN03
_audit_creation_date 2012-09-04
_audit_creation_method CSD-ConQuest-V1
_database_code_CSD FAWCEN03
_database_code_depnum_ccdc_archive 'CCDC 864312'
_chemical_formula_sum 'C8 H10 N4 Zn1'
_chemical_formula_moiety
;
(C8 H10 N4 Zn1)n
;
_journal_coden_Cambridge 983
_journal_volume 116
_journal_year 2012
_journal_page_first 13307
_journal_name_full 'J.Phys.Chem.C '
loop_
_publ_author_name
"W.Morris"
"C.J.Stevens"
"R.E.Taylor"
"C.Dybowski"
"O.M.Yaghi"
"M.A.Garcia-Garibay"
_chemical_name_systematic
;
catena-[bis(\m~2~-2-Methylimidazolyl)-zinc(ii) unknown solvate]
;
_chemical_name_common
;
ZIF-8
;
_cell_volume   4921.241
_exptl_crystal_density_diffrn 0.921
_diffrn_ambient_temperature 298
_refine_special_details
;
Solvent water, modelled in the structure from diffraction data at low 
temperature, is not present in this structural model from a room temperature 
data set. We calculate 29% void space in the structure.
;
#These two values have been output from a single CSD field.
_refine_ls_R_factor_gt 0.0477
_refine_ls_wR_factor_gt 0.0477
_symmetry_cell_setting cubic
_symmetry_space_group_name_H-M 'I -4 3 m'
_symmetry_Int_Tables_number 217
loop_
_symmetry_equiv_pos_site_id
_symmetry_equiv_pos_as_xyz
1 x,y,z
2 -x,-y,z
3 -x,y,-z
4 x,-y,-z
5 z,x,y
6 z,-x,-y
7 -z,-x,y
8 -z,x,-y
9 y,z,x
10 -y,z,-x
11 y,-z,-x
12 -y,-z,x
13 y,x,z
14 -y,-x,z
15 y,-x,-z
16 -y,x,-z
17 x,z,y
18 -x,z,-y
19 -x,-z,y
20 x,-z,-y
21 z,y,x
22 z,-y,-x
23 -z,y,-x
24 -z,-y,x
25 1/2+x,1/2+y,1/2+z
26 1/2-x,1/2-y,1/2+z
27 1/2-x,1/2+y,1/2-z
28 1/2+x,1/2-y,1/2-z
29 1/2+z,1/2+x,1/2+y
30 1/2+z,1/2-x,1/2-y
31 1/2-z,1/2-x,1/2+y
32 1/2-z,1/2+x,1/2-y
33 1/2+y,1/2+z,1/2+x
34 1/2-y,1/2+z,1/2-x
35 1/2+y,1/2-z,1/2-x
36 1/2-y,1/2-z,1/2+x
37 1/2+y,1/2+x,1/2+z
38 1/2-y,1/2-x,1/2+z
39 1/2+y,1/2-x,1/2-z
40 1/2-y,1/2+x,1/2-z
41 1/2+x,1/2+z,1/2+y
42 1/2-x,1/2+z,1/2-y
43 1/2-x,1/2-z,1/2+y
44 1/2+x,1/2-z,1/2-y
45 1/2+z,1/2+y,1/2+x
46 1/2+z,1/2-y,1/2-x
47 1/2-z,1/2+y,1/2-x
48 1/2-z,1/2-y,1/2+x
_cell_length_a 17.0095(8)
_cell_length_b 17.0095(8)
_cell_length_c 17.0095(8)
_cell_angle_alpha 90
_cell_angle_beta 90
_cell_angle_gamma 90
_cell_formula_units_Z 12
loop_
_atom_type_symbol
_atom_type_radius_bond
C 0.68
H 0.23
N 0.68
Zn 1.22
loop_
_atom_site_label
_atom_site_type_symbol
_atom_site_fract_x
_atom_site_fract_y
_atom_site_fract_z
Zn1 Zn 0.00000 0.50000 0.25000
N1 N 0.0309(3) 0.5904(3) 0.3173(3)
C1 C -0.0086(2) 0.6233(7) 0.3767(2)
C2 C 0.1000(5) 0.6322(4) 0.3127(5)
H1 H 0.14020 0.62330 0.27670
C3 C -0.0872(5) 0.5949(6) 0.4051(5)
H2? H -0.10100 0.62220 0.45250
H3? H -0.08450 0.53950 0.41540
H4? H -0.12620 0.60480 0.36560
Zn1R Zn 0.00000 0.75000 0.50000
Zn1P Zn 0.00000 0.25000 0.50000
N1S N 0.0309(3) 0.6827(3) 0.4096(3)
N1A N -0.0309(3) 0.4096(3) 0.3173(3)
N1Q N -0.0309(3) 0.3173(3) 0.4096(3)
N1LA N 0.0904(3) 0.4691(3) 0.1827(3)
N1MA N -0.0904(3) 0.5309(3) 0.1827(3)
C1A C 0.0086(2) 0.3767(7) 0.3767(2)
C2S C 0.1000(5) 0.6873(4) 0.3678(5)
C2A C -0.1000(5) 0.3678(4) 0.3127(5)
C2Q C -0.1000(5) 0.3127(4) 0.3678(5)
H1S H 0.14020 0.72330 0.37670
H1A H -0.14020 0.37670 0.27670
H1Q H -0.14020 0.27670 0.37670
C3A C 0.0872(5) 0.4051(6) 0.4051(5)
#END
